NAME: ./prFile/tspFile/tsp_file90.tsp
COMMENT: TSP file generated by Python
TYPE: TSP
DIMENSION: 40
EDGE_WEIGHT_TYPE: EUC_2D
NODE_COORD_SECTION
1 78 20
2 59 89
3 84 62
4 67 79
5 3 23
6 62 31
7 84 29
8 21 5
9 45 3
10 76 98
11 88 16
12 19 100
13 79 33
14 1 52
15 30 36
16 95 47
17 63 9
18 26 28
19 86 95
20 70 88
21 59 13
22 40 50
23 11 73
24 60 99
25 22 86
26 13 80
27 85 68
28 12 66
29 47 94
30 33 42
31 29 79
32 41 15
33 81 27
34 61 67
35 46 84
36 93 6
37 71 18
38 7 11
39 36 68
40 4 2
EOF
